results/x-10M/X-n143-k7.vrp_seed-7.out
15700	10562
